Read MPS format model from file dat/rmp/DER_24_1024_40.mps
Reading time = 0.05 seconds
: 1048 rows, 6216 columns, 139864 nonzeros
Gurobi Optimizer version 9.0.0 build v9.0.0rc2 (linux64)
Optimize a model with 1048 rows, 6216 columns and 139864 nonzeros
Model fingerprint: 0x4205682a
Coefficient statistics:
  Matrix range     [2e-03, 1e+01]
  Objective range  [2e-01, 1e+03]
  Bounds range     [6e+03, 6e+03]
  RHS range        [1e+00, 1e+00]
Ordering time: 0.00s

Barrier statistics:
 AA' NZ     : 2.369e+04
 Factor NZ  : 3.321e+04 (roughly 3 MBytes of memory)
 Factor Ops : 1.153e+06 (less than 1 second per iteration)
 Threads    : 1

                  Objective                Residual
Iter       Primal          Dual         Primal    Dual     Compl     Time
   0   1.03541400e+08 -1.20875881e+07  5.03e+05 1.56e-02  1.74e+05     0s
   1   4.14296017e+06 -2.89667167e+06  1.84e+04 3.64e-12  6.76e+03     0s
   2   1.47340349e+05 -1.51079874e+06  6.33e+02 3.64e-12  4.50e+02     0s
   3   1.84078712e+03 -2.70040204e+05  7.62e-12 3.64e-12  4.36e+01     0s
   4   1.51686618e+03  9.41308393e+02  4.56e-12 3.64e-12  9.22e-02     0s
   5   1.50122418e+03  1.34974510e+03  3.23e-12 3.64e-12  2.43e-02     0s
   6   1.48891446e+03  1.44911578e+03  4.64e-12 5.46e-12  6.38e-03     0s
   7   1.47964903e+03  1.46805548e+03  4.08e-12 1.82e-12  1.86e-03     0s
   8   1.47797639e+03  1.47151790e+03  4.71e-12 1.82e-12  1.04e-03     0s
   9   1.47654448e+03  1.47294550e+03  5.53e-12 3.64e-12  5.77e-04     0s
  10   1.47505496e+03  1.47390869e+03  1.33e-11 3.64e-12  1.84e-04     0s
  11   1.47480246e+03  1.47413558e+03  1.52e-11 3.64e-12  1.07e-04     0s
  12   1.47465934e+03  1.47424742e+03  1.13e-11 1.82e-12  6.60e-05     0s
  13   1.47455693e+03  1.47431472e+03  2.47e-11 1.82e-12  3.88e-05     0s
  14   1.47454479e+03  1.47435411e+03  1.88e-11 1.82e-12  3.06e-05     0s
  15   1.47451857e+03  1.47439933e+03  2.63e-11 1.82e-12  1.91e-05     0s
  16   1.47446218e+03  1.47441855e+03  3.97e-11 1.82e-12  6.99e-06     0s
  17   1.47444819e+03  1.47442603e+03  7.37e-11 1.82e-12  3.55e-06     0s
  18   1.47444351e+03  1.47443118e+03  7.39e-11 3.64e-12  1.98e-06     0s
  19   1.47443905e+03  1.47443256e+03  1.18e-10 1.82e-12  1.04e-06     0s
  20   1.47443731e+03  1.47443354e+03  1.15e-10 1.82e-12  6.04e-07     0s
  21   1.47443622e+03  1.47443415e+03  1.64e-10 1.82e-12  3.32e-07     0s
  22   1.47443603e+03  1.47443446e+03  1.36e-10 1.82e-12  2.52e-07     0s
  23   1.47443546e+03  1.47443465e+03  1.23e-10 1.82e-12  1.30e-07     0s
  24   1.47443517e+03  1.47443488e+03  2.05e-10 1.82e-12  4.71e-08     0s
  25   1.47443511e+03  1.47443497e+03  1.44e-10 1.82e-12  2.09e-08     0s
  26   1.47443503e+03  1.47443500e+03  4.34e-10 3.64e-12  3.95e-09     0s
  27   1.47443502e+03  1.47443502e+03  2.60e-09 3.64e-12  1.30e-10     0s

Barrier solved model in 27 iterations and 0.16 seconds
Optimal objective 1.47443502e+03

Solve time: 0.159263088
Barrier iterations: 27
